other_tools/afl/aessim/simplescalar/mytests/benchmarks/papabench/ap_spi_cmd2/ap_spi_cmd2.lp
Maximize

81 dSta_0 + 236 d0_1 + 37 d0_2 + 37 d1_2 + 4 d2_3 + 80 d2_4 + 80 d3_4 + 79 d4_8 + 41 d8_9 + 3 d8_11 + 36 d9_10 + 3 d9_11 + 3 d10_11 + 36 d11_17 + 41 d17_12 + 40 d12_13 + 39 d12_15 + 1 d13_14 + 39 d13_15 + 39 d14_15 + 1 d15_18 + 4 d18_16 + 37 d16_5 + 1 d5_6 + 74 d5_7 + 78 d6_19 + 38 d19_20 + 77 d19_25 + 1 d20_21 + 4 d20_28 + 38 d21_22 + 4 d21_28 + 3 d22_23 + 4 d22_28 + 114 d23_24 + 4 d23_28 + 4 d24_28 + 1 d25_26 + 4 d25_28 + 96 d26_29 + 275 d29_27 + 5 d27_28 + 74 d28_7


Subject to


\ === tcfg constraints ===
dSta_0 = 1
b0 - d0_1 - d0_2 = 0
b0 - dSta_0 = 0
b1 - d1_2 = 0
b1 - d0_1 = 0
b2 - d2_3 - d2_4 = 0
b2 - d0_2 - d1_2 = 0
b3 - d3_4 = 0
b3 - d2_3 = 0
b4 - d4_8 = 0
b4 - d2_4 - d3_4 = 0
b5 - d5_6 - d5_7 = 0
b5 - d16_5 = 0
b6 - d6_19 = 0
b6 - d5_6 = 0
b7 - d28_7 - d5_7 = 0
b8 - d8_9 - d8_11 = 0
b8 - d4_8 = 0
b9 - d9_10 - d9_11 = 0
b9 - d8_9 = 0
b10 - d10_11 = 0
b10 - d9_10 = 0
b11 - d11_17 = 0
b11 - d8_11 - d9_11 - d10_11 = 0
b12 - d12_13 - d12_15 = 0
b12 - d17_12 = 0
b13 - d13_14 - d13_15 = 0
b13 - d12_13 = 0
b14 - d14_15 = 0
b14 - d13_14 = 0
b15 - d15_18 = 0
b15 - d12_15 - d13_15 - d14_15 = 0
b16 - d16_5 = 0
b16 - d18_16 = 0
b17 - d17_12 = 0
b17 - d11_17 = 0
b18 - d18_16 = 0
b18 - d15_18 = 0
b19 - d19_20 - d19_25 = 0
b19 - d6_19 = 0
b20 - d20_21 - d20_28 = 0
b20 - d19_20 = 0
b21 - d21_22 - d21_28 = 0
b21 - d20_21 = 0
b22 - d22_23 - d22_28 = 0
b22 - d21_22 = 0
b23 - d23_24 - d23_28 = 0
b23 - d22_23 = 0
b24 - d24_28 = 0
b24 - d23_24 = 0
b25 - d25_26 - d25_28 = 0
b25 - d19_25 = 0
b26 - d26_29 = 0
b26 - d25_26 = 0
b27 - d27_28 = 0
b27 - d29_27 = 0
b28 - d28_7 = 0
b28 - d20_28 - d21_28 - d22_28 - d23_28 - d24_28 - d25_28 - d27_28 = 0
b29 - d29_27 = 0
b29 - d26_29 = 0

\ === tcfg loop header node bounds  ===

\ === tcfg loop back edge constraints  ===


\ === user constraints (loop bound etc) ===

Generals

dSta_0
b0
d0_1
d0_2
b1
d1_2
b2
d2_3
d2_4
b3
d3_4
b4
d4_8
b5
d5_6
d5_7
b6
d6_19
b7
b8
d8_9
d8_11
b9
d9_10
d9_11
b10
d10_11
b11
d11_17
b12
d12_13
d12_15
b13
d13_14
d13_15
b14
d14_15
b15
d15_18
b16
d16_5
b17
d17_12
b18
d18_16
b19
d19_20
d19_25
b20
d20_21
d20_28
b21
d21_22
d21_28
b22
d22_23
d22_28
b23
d23_24
d23_28
b24
d24_28
b25
d25_26
d25_28
b26
d26_29
b27
d27_28
b28
d28_7
b29
d29_27

End
