aessim/simplescalar/mytests/benchmarks/papabench/ap_spi_cmd2/ap_spi_cmd2.out
sim-profile: SimpleScalar/PISA Tool Set version 3.0 of August, 2003.
Copyright (c) 1994-2003 by Todd M. Austin, Ph.D. and SimpleScalar, LLC.
All Rights Reserved. This version of SimpleScalar is licensed for academic
non-commercial use.  No portion of this work may be used by any commercial
entity, or for any commercial purpose, without the prior written permission
of SimpleScalar, LLC (info@simplescalar.com).

sim: command line: /home/sudiptac/sudiptac/Work/simplesim-3.0/sim-profile -pcstat sim_num_insn ap_spi_cmd2 

sim: simulation started @ Thu May 10 11:42:59 2012, options follow:

sim-profile: This simulator implements a functional simulator with
profiling support.  Run with the `-h' flag to see profiling options
available.

# -config                     # load configuration from a file
# -dumpconfig                 # dump configuration to a file
# -h                    false # print help message    
# -v                    false # verbose operation     
# -d                    false # enable debug message  
# -i                    false # start in Dlite debugger
-seed                       1 # random number generator seed (0 for timer seed)
# -q                    false # initialize and terminate immediately
# -chkpt               <null> # restore EIO trace execution from <fname>
# -redir:sim           <null> # redirect simulator output to file (non-interactive only)
# -redir:prog          <null> # redirect simulated program output to file
-nice                       0 # simulator scheduling priority
-max:inst                   0 # maximum number of inst's to execute
-all                    false # enable all profile options
-iclass                 false # enable instruction class profiling
-iprof                  false # enable instruction profiling
-brprof                 false # enable branch instruction profiling
-amprof                 false # enable address mode profiling
-segprof                false # enable load/store address segment profiling
-tsymprof               false # enable text symbol profiling
-taddrprof              false # enable text address profiling
-dsymprof               false # enable data symbol profiling
-internal               false # include compiler-internal symbols during symbol profiling
# -pcstat        sim_num_insn # profile stat(s) against text addr's (mult uses ok)

sim: ** starting functional simulation **

sim: ** simulation statistics **
sim_num_insn                   6017 # total number of instructions executed
sim_num_refs                   3617 # total number of loads and stores executed
sim_elapsed_time                  1 # total simulation time in seconds
sim_inst_rate             6017.0000 # simulation speed (in insts/sec)

sim_num_insn_by_pc     # total number of instructions executed (by text address)
sim_num_insn_by_pc.count = 841
sim_num_insn_by_pc.total = 6016
sim_num_insn_by_pc.imin = 0x400140
sim_num_insn_by_pc.imax = 0x405a50
sim_num_insn_by_pc.average =   7.1534
sim_num_insn_by_pc.std_dev =  46.1018
sim_num_insn_by_pc.overflows = 0
# pdf == prob dist fn, cdf == cumulative dist fn
#          index      count    pdf 
sim_num_insn_by_pc.start_dist
0x400140 1 0.02
0x400148 1 0.02
0x400150 1 0.02
0x400158 1 0.02
0x400160 1 0.02
0x400168 1 0.02
0x400170 1 0.02
0x400178 1 0.02
0x400180 1 0.02
0x400188 1 0.02
0x400190 1 0.02
0x400198 1 0.02
0x4001a0 1 0.02
0x4001a8 1 0.02
0x4001b0 1 0.02
0x4001b8 1 0.02
0x4001c0 1 0.02
0x4001c8 1 0.02
0x4001d0 1 0.02
0x4001d8 1 0.02
0x4001e0 1 0.02
0x4001f0 2 0.03
0x400258 1 0.02
0x400260 1 0.02
0x400268 1 0.02
0x400270 1 0.02
0x400278 1 0.02
0x400280 1 0.02
0x400288 1 0.02
0x400290 1 0.02
0x400298 1 0.02
0x4002a0 1 0.02
0x4002a8 1 0.02
0x4002b0 1 0.02
0x4002b8 1 0.02
0x400418 1 0.02
0x400420 1 0.02
0x400428 1 0.02
0x400430 1 0.02
0x400438 1 0.02
0x400440 1 0.02
0x400448 1 0.02
0x400450 1 0.02
0x400458 1 0.02
0x400460 1 0.02
0x400468 1 0.02
0x400470 1 0.02
0x400478 1 0.02
0x400488 1 0.02
0x400490 1 0.02
0x400498 1 0.02
0x4004a0 1 0.02
0x4004a8 1 0.02
0x4004b0 1 0.02
0x4004b8 1 0.02
0x4004c0 1 0.02
0x4004c8 1 0.02
0x4004d0 1 0.02
0x4004e0 1 0.02
0x4004e8 1 0.02
0x4004f0 1 0.02
0x4004f8 1 0.02
0x400500 1 0.02
0x400508 1 0.02
0x400510 1 0.02
0x400518 1 0.02
0x400520 1 0.02
0x400528 1 0.02
0x4005f8 1 0.02
0x400600 1 0.02
0x400608 1 0.02
0x400610 1 0.02
0x400618 1 0.02
0x400620 1 0.02
0x400628 1 0.02
0x400630 1 0.02
0x400638 1 0.02
0x400640 1 0.02
0x400648 1 0.02
0x400650 1 0.02
0x400658 1 0.02
0x400660 1 0.02
0x400668 1 0.02
0x400670 1 0.02
0x400678 1 0.02
0x400680 1 0.02
0x400690 1 0.02
0x400698 1 0.02
0x4006a0 1 0.02
0x4006a8 1 0.02
0x4006b0 1 0.02
0x4006b8 1 0.02
0x4006c0 1 0.02
0x4006c8 1 0.02
0x4006d0 1 0.02
0x4006d8 1 0.02
0x4006e0 1 0.02
0x4006e8 1 0.02
0x4006f0 1 0.02
0x4006f8 1 0.02
0x400700 1 0.02
0x400708 1 0.02
0x400710 1 0.02
0x400718 1 0.02
0x400720 1 0.02
0x400728 1 0.02
0x400730 1 0.02
0x400738 1 0.02
0x400740 1 0.02
0x4007f0 1 0.02
0x4007f8 1 0.02
0x400800 1 0.02
0x400808 1 0.02
0x400810 1 0.02
0x400860 1 0.02
0x400868 1 0.02
0x400870 1 0.02
0x400878 1 0.02
0x400880 1 0.02
0x400888 1 0.02
0x400890 1 0.02
0x400898 1 0.02
0x4008a0 1 0.02
0x4008a8 1 0.02
0x4008b0 1 0.02
0x4008b8 1 0.02
0x4008c8 1 0.02
0x4008d0 1 0.02
0x4008d8 1 0.02
0x4008e0 1 0.02
0x4008e8 1 0.02
0x400b00 1 0.02
0x400b08 1 0.02
0x400b10 1 0.02
0x400b18 1 0.02
0x400b20 1 0.02
0x400b28 1 0.02
0x400b30 1 0.02
0x400b50 1 0.02
0x400b70 1 0.02
0x400b78 1 0.02
0x400b80 1 0.02
0x400b88 1 0.02
0x400b90 1 0.02
0x400b98 1 0.02
0x400bb8 1 0.02
0x400bc0 1 0.02
0x400bc8 1 0.02
0x400bd0 1 0.02
0x400bf0 1 0.02
0x400bf8 1 0.02
0x400c00 1 0.02
0x400c08 1 0.02
0x400c10 1 0.02
0x400c18 1 0.02
0x400c20 1 0.02
0x400c28 1 0.02
0x400c30 1 0.02
0x400c38 1 0.02
0x400c40 1 0.02
0x400c48 1 0.02
0x400c50 1 0.02
0x400c58 1 0.02
0x400c60 1 0.02
0x400c68 1 0.02
0x400c70 1 0.02
0x400c78 1 0.02
0x400c80 1 0.02
0x400c88 1 0.02
0x400c90 1 0.02
0x400c98 1 0.02
0x400ca0 1 0.02
0x400ca8 1 0.02
0x400cb8 1 0.02
0x400cc0 1 0.02
0x400cc8 1 0.02
0x400cd0 1 0.02
0x400cd8 1 0.02
0x400ce0 1 0.02
0x400ce8 1 0.02
0x400cf0 1 0.02
0x400cf8 1 0.02
0x400d00 1 0.02
0x400d08 1 0.02
0x400d10 1 0.02
0x400d18 1 0.02
0x400d20 1 0.02
0x400d28 1 0.02
0x400d30 1 0.02
0x400d38 1 0.02
0x400d40 1 0.02
0x400d48 1 0.02
0x400d50 1 0.02
0x400d58 1 0.02
0x400d60 1 0.02
0x400d68 1 0.02
0x400d70 1 0.02
0x400d78 1 0.02
0x400d88 1 0.02
0x400d90 1 0.02
0x400d98 1 0.02
0x400da0 1 0.02
0x400da8 1 0.02
0x400db0 1 0.02
0x400db8 1 0.02
0x400dc0 1 0.02
0x400dc8 1 0.02
0x400dd0 1 0.02
0x400dd8 1 0.02
0x400de0 1 0.02
0x400de8 1 0.02
0x400df0 1 0.02
0x400df8 1 0.02
0x400e00 1 0.02
0x400e08 1 0.02
0x400e38 1 0.02
0x400e40 1 0.02
0x400e50 1 0.02
0x400e58 1 0.02
0x400e70 1 0.02
0x400e78 1 0.02
0x400e80 1 0.02
0x400e88 1 0.02
0x400e98 1 0.02
0x400ea0 1 0.02
0x400ea8 1 0.02
0x400eb0 1 0.02
0x400eb8 1 0.02
0x401140 1 0.02
0x401148 1 0.02
0x401150 1 0.02
0x401158 1 0.02
0x401168 1 0.02
0x401170 1 0.02
0x401178 1 0.02
0x401180 1 0.02
0x401188 1 0.02
0x401190 1 0.02
0x401198 1 0.02
0x4011a0 1 0.02
0x4011a8 1 0.02
0x4011b0 1 0.02
0x4011b8 1 0.02
0x4011c0 1 0.02
0x4011c8 1 0.02
0x4011d0 1 0.02
0x4011d8 1 0.02
0x4011e0 1 0.02
0x4011e8 1 0.02
0x4011f0 1 0.02
0x4011f8 1 0.02
0x401200 1 0.02
0x401208 1 0.02
0x401210 1 0.02
0x401228 1 0.02
0x401230 1 0.02
0x401238 1 0.02
0x401240 1 0.02
0x401248 1 0.02
0x401250 1 0.02
0x401260 1 0.02
0x401268 1 0.02
0x401600 1 0.02
0x401608 1 0.02
0x401610 1 0.02
0x401618 1 0.02
0x401620 1 0.02
0x401628 1 0.02
0x401630 1 0.02
0x401638 1 0.02
0x401640 1 0.02
0x401648 1 0.02
0x401650 1 0.02
0x401658 1 0.02
0x401660 1 0.02
0x401668 1 0.02
0x401670 1 0.02
0x401678 1 0.02
0x401680 1 0.02
0x401688 1 0.02
0x401690 1 0.02
0x401698 1 0.02
0x4016a0 1 0.02
0x4016a8 1 0.02
0x4016b0 1 0.02
0x4016b8 1 0.02
0x4016c0 1 0.02
0x4016c8 1 0.02
0x4017b0 1 0.02
0x4017b8 1 0.02
0x4017c0 1 0.02
0x4017c8 1 0.02
0x4017d0 1 0.02
0x4017d8 1 0.02
0x4017e0 1 0.02
0x4017f0 1 0.02
0x4017f8 1 0.02
0x401800 1 0.02
0x401808 1 0.02
0x401810 1 0.02
0x401818 1 0.02
0x401820 1 0.02
0x401828 1 0.02
0x401830 1 0.02
0x401838 1 0.02
0x401840 1 0.02
0x401848 1 0.02
0x401850 1 0.02
0x401858 1 0.02
0x401860 1 0.02
0x401868 1 0.02
0x401870 1 0.02
0x401b08 1 0.02
0x401b10 1 0.02
0x401b18 1 0.02
0x401b20 1 0.02
0x401b28 1 0.02
0x401b30 1 0.02
0x401b38 1 0.02
0x401b40 1 0.02
0x401b50 4 0.07
0x401b58 4 0.07
0x401b60 4 0.07
0x401b68 4 0.07
0x401b70 4 0.07
0x401b78 4 0.07
0x401b80 4 0.07
0x401b88 1 0.02
0x401b90 1 0.02
0x401b98 1 0.02
0x401ba0 1 0.02
0x401ba8 1 0.02
0x401bb0 1 0.02
0x401bb8 3 0.05
0x401bc0 3 0.05
0x401bd8 3 0.05
0x401be0 3 0.05
0x401be8 3 0.05
0x401bf0 3 0.05
0x401bf8 3 0.05
0x401c00 3 0.05
0x401c08 1 0.02
0x401c10 1 0.02
0x401c18 3 0.05
0x401c20 3 0.05
0x401c28 3 0.05
0x401c30 3 0.05
0x401c48 3 0.05
0x401c50 3 0.05
0x401c58 3 0.05
0x401c60 3 0.05
0x401c88 3 0.05
0x401c90 3 0.05
0x401c98 3 0.05
0x401ca0 2 0.03
0x401ca8 2 0.03
0x401cb0 2 0.03
0x401cb8 2 0.03
0x401cc0 2 0.03
0x401cd8 3 0.05
0x401ce0 3 0.05
0x401ce8 1 0.02
0x401cf0 1 0.02
0x401cf8 1 0.02
0x401d00 1 0.02
0x401d08 3 0.05
0x401d10 3 0.05
0x401d18 2 0.03
0x401d20 2 0.03
0x401d28 2 0.03
0x401d30 2 0.03
0x401d38 1 0.02
0x401d40 1 0.02
0x401d48 1 0.02
0x401d50 1 0.02
0x401d58 1 0.02
0x401d78 1 0.02
0x401d80 3 0.05
0x401d88 3 0.05
0x401d90 3 0.05
0x401d98 4 0.07
0x401da0 4 0.07
0x401da8 4 0.07
0x401db0 4 0.07
0x401db8 4 0.07
0x401dc0 4 0.07
0x401df0 1 0.02
0x401df8 1 0.02
0x401e00 1 0.02
0x401e08 1 0.02
0x401e40 1 0.02
0x401e48 1 0.02
0x401e50 1 0.02
0x401e58 1 0.02
0x401e60 1 0.02
0x401e68 1 0.02
0x401e70 3 0.05
0x401e78 3 0.05
0x401e80 3 0.05
0x401e88 3 0.05
0x401e90 3 0.05
0x401e98 3 0.05
0x401ea0 3 0.05
0x401ea8 3 0.05
0x401eb0 2 0.03
0x401eb8 2 0.03
0x401ec0 2 0.03
0x401ec8 2 0.03
0x401ed0 2 0.03
0x401ed8 2 0.03
0x401ee0 1 0.02
0x401ee8 1 0.02
0x401ef0 1 0.02
0x401ef8 1 0.02
0x401f00 1 0.02
0x401f08 1 0.02
0x401f10 1 0.02
0x401f18 1 0.02
0x401f20 1 0.02
0x401f28 1 0.02
0x401f30 1 0.02
0x401f38 1 0.02
0x401f40 1 0.02
0x401f48 1 0.02
0x401f50 1 0.02
0x401f58 1 0.02
0x401f60 1 0.02
0x401f78 1 0.02
0x401f80 1 0.02
0x401f88 1 0.02
0x401f90 3 0.05
0x401f98 3 0.05
0x401fa0 3 0.05
0x401fa8 3 0.05
0x401fb0 3 0.05
0x401fb8 3 0.05
0x401fc0 3 0.05
0x401fc8 3 0.05
0x401fd0 3 0.05
0x401fd8 3 0.05
0x401fe0 4 0.07
0x401fe8 4 0.07
0x401ff0 4 0.07
0x401ff8 4 0.07
0x402000 4 0.07
0x402008 4 0.07
0x402010 4 0.07
0x402018 4 0.07
0x402020 4 0.07
0x402028 4 0.07
0x402058 4 0.07
0x402060 4 0.07
0x402068 4 0.07
0x402070 390 6.48
0x402078 390 6.48
0x402080 390 6.48
0x402088 390 6.48
0x402090 390 6.48
0x402098 390 6.48
0x4020a0 390 6.48
0x4020a8 390 6.48
0x4020b0 390 6.48
0x4020b8 390 6.48
0x4020c0 390 6.48
0x4020c8 390 6.48
0x4020d0 4 0.07
0x4020d8 4 0.07
0x4020e0 4 0.07
0x4020e8 12 0.20
0x4020f0 12 0.20
0x4020f8 12 0.20
0x402100 12 0.20
0x402108 4 0.07
0x402110 4 0.07
0x402138 4 0.07
0x402140 4 0.07
0x402310 1 0.02
0x402318 1 0.02
0x402320 1 0.02
0x402328 1 0.02
0x402330 1 0.02
0x402338 1 0.02
0x402340 1 0.02
0x402348 1 0.02
0x402350 1 0.02
0x402358 1 0.02
0x402368 1 0.02
0x402370 1 0.02
0x402378 1 0.02
0x402380 1 0.02
0x402388 1 0.02
0x402390 1 0.02
0x402398 1 0.02
0x4023a0 1 0.02
0x4023a8 1 0.02
0x4023b0 1 0.02
0x4023b8 1 0.02
0x4023c0 1 0.02
0x4023c8 1 0.02
0x4023d0 1 0.02
0x4023d8 1 0.02
0x4023e0 1 0.02
0x4023e8 1 0.02
0x4023f0 1 0.02
0x4023f8 1 0.02
0x402400 1 0.02
0x402408 1 0.02
0x402410 1 0.02
0x402418 1 0.02
0x402420 1 0.02
0x402428 1 0.02
0x402478 1 0.02
0x402480 1 0.02
0x402488 1 0.02
0x402490 1 0.02
0x402498 1 0.02
0x4024a0 1 0.02
0x4024a8 1 0.02
0x4024c0 1 0.02
0x4024c8 1 0.02
0x4024d0 1 0.02
0x4024d8 1 0.02
0x4024e0 1 0.02
0x4024e8 1 0.02
0x4024f0 1 0.02
0x4024f8 1 0.02
0x402500 1 0.02
0x402508 1 0.02
0x402510 1 0.02
0x402518 1 0.02
0x402520 1 0.02
0x402570 1 0.02
0x402578 1 0.02
0x402580 1 0.02
0x402588 1 0.02
0x402590 1 0.02
0x402598 1 0.02
0x4025a0 1 0.02
0x4025a8 1 0.02
0x4025b0 1 0.02
0x4025b8 1 0.02
0x4025c0 1 0.02
0x4025c8 1 0.02
0x4025d0 1 0.02
0x4025d8 1 0.02
0x4025e0 1 0.02
0x4025e8 1 0.02
0x4025f0 1 0.02
0x4025f8 1 0.02
0x402600 1 0.02
0x402608 1 0.02
0x402610 1 0.02
0x402618 1 0.02
0x402620 1 0.02
0x402628 1 0.02
0x402630 1 0.02
0x402638 1 0.02
0x402640 1 0.02
0x402648 1 0.02
0x402700 1 0.02
0x402708 1 0.02
0x402710 1 0.02
0x402718 1 0.02
0x402720 1 0.02
0x402870 1 0.02
0x402878 1 0.02
0x402b88 1 0.02
0x402b90 1 0.02
0x402b98 1 0.02
0x402ba0 1 0.02
0x402ba8 1 0.02
0x402bb0 1 0.02
0x402bb8 1 0.02
0x402bc0 1 0.02
0x402bc8 1 0.02
0x402bd0 1 0.02
0x402bd8 1 0.02
0x402be0 1 0.02
0x402c08 1 0.02
0x402c10 1 0.02
0x402c40 1 0.02
0x402c48 1 0.02
0x402c50 1 0.02
0x402c58 1 0.02
0x403088 2 0.03
0x403090 2 0.03
0x403098 2 0.03
0x4030a0 2 0.03
0x4030a8 2 0.03
0x4030b0 2 0.03
0x4030b8 2 0.03
0x4030c0 2 0.03
0x4030c8 2 0.03
0x4030d0 2 0.03
0x4030d8 2 0.03
0x4030e0 2 0.03
0x4030e8 2 0.03
0x4030f0 2 0.03
0x4030f8 2 0.03
0x403100 2 0.03
0x403108 2 0.03
0x403110 2 0.03
0x403118 2 0.03
0x403120 2 0.03
0x403128 2 0.03
0x403130 2 0.03
0x403138 2 0.03
0x403140 2 0.03
0x403148 2 0.03
0x403150 2 0.03
0x403158 2 0.03
0x403160 2 0.03
0x403318 2 0.03
0x403320 2 0.03
0x403328 1 0.02
0x403330 1 0.02
0x403338 1 0.02
0x403340 1 0.02
0x403348 1 0.02
0x403350 1 0.02
0x403358 1 0.02
0x4033c0 2 0.03
0x4033c8 2 0.03
0x4033d0 2 0.03
0x4033d8 2 0.03
0x403410 2 0.03
0x403418 2 0.03
0x403420 2 0.03
0x403428 2 0.03
0x403430 2 0.03
0x403438 2 0.03
0x403440 2 0.03
0x403448 2 0.03
0x403450 2 0.03
0x403458 2 0.03
0x403460 2 0.03
0x403760 2 0.03
0x403768 2 0.03
0x403770 2 0.03
0x403778 2 0.03
0x403780 2 0.03
0x403788 2 0.03
0x403790 2 0.03
0x403798 2 0.03
0x4037a0 2 0.03
0x4037b8 2 0.03
0x4037c0 2 0.03
0x4037c8 2 0.03
0x4037d0 2 0.03
0x4037d8 2 0.03
0x4037e0 2 0.03
0x4037e8 2 0.03
0x4037f0 2 0.03
0x4037f8 2 0.03
0x403800 2 0.03
0x403808 2 0.03
0x403ca0 2 0.03
0x403ca8 2 0.03
0x403cb0 2 0.03
0x403cb8 2 0.03
0x403cc0 2 0.03
0x403cc8 2 0.03
0x403cd0 2 0.03
0x403cd8 2 0.03
0x403ce0 2 0.03
0x403ce8 2 0.03
0x403cf0 2 0.03
0x403cf8 2 0.03
0x403d00 2 0.03
0x403d08 2 0.03
0x403d10 2 0.03
0x403d28 2 0.03
0x403d30 2 0.03
0x403d38 2 0.03
0x403d40 2 0.03
0x403d48 2 0.03
0x403d50 2 0.03
0x403d58 2 0.03
0x403d80 2 0.03
0x403d88 2 0.03
0x403d90 2 0.03
0x403d98 2 0.03
0x403da0 2 0.03
0x403dd8 2 0.03
0x403de0 2 0.03
0x403de8 2 0.03
0x403df0 2 0.03
0x403df8 2 0.03
0x403e00 2 0.03
0x403e08 2 0.03
0x403e10 2 0.03
0x403e18 2 0.03
0x403e20 2 0.03
0x403e28 2 0.03
0x403e30 2 0.03
0x403e38 2 0.03
0x403e40 2 0.03
0x403e48 2 0.03
0x403e50 2 0.03
0x403e58 2 0.03
0x403e60 2 0.03
0x403e68 2 0.03
0x403e70 2 0.03
0x403e78 2 0.03
0x403e80 2 0.03
0x403e88 2 0.03
0x403e90 2 0.03
0x403e98 2 0.03
0x403ea0 2 0.03
0x403ea8 2 0.03
0x403eb0 2 0.03
0x403eb8 2 0.03
0x403ec0 2 0.03
0x403ec8 1 0.02
0x403ed0 1 0.02
0x403ee8 1 0.02
0x403ef0 1 0.02
0x403ef8 1 0.02
0x403f00 1 0.02
0x403f08 1 0.02
0x403f10 1 0.02
0x403f18 1 0.02
0x403f50 1 0.02
0x403f58 1 0.02
0x403f60 1 0.02
0x403f88 2 0.03
0x403f90 2 0.03
0x403f98 2 0.03
0x403fa0 2 0.03
0x403fa8 2 0.03
0x403fb0 2 0.03
0x403fb8 2 0.03
0x403fc0 2 0.03
0x403fc8 2 0.03
0x403ff8 2 0.03
0x4040c0 2 0.03
0x4040c8 2 0.03
0x4040d0 2 0.03
0x4040f8 2 0.03
0x404100 2 0.03
0x404110 2 0.03
0x404118 2 0.03
0x404120 2 0.03
0x404128 2 0.03
0x404130 2 0.03
0x404138 2 0.03
0x404168 2 0.03
0x404170 2 0.03
0x404178 2 0.03
0x404180 2 0.03
0x404198 2 0.03
0x4041a0 2 0.03
0x4041a8 2 0.03
0x4041b0 2 0.03
0x4041b8 2 0.03
0x4041c0 2 0.03
0x4041c8 2 0.03
0x4041d0 2 0.03
0x404768 3 0.05
0x404770 3 0.05
0x404778 3 0.05
0x404780 3 0.05
0x404788 3 0.05
0x404790 3 0.05
0x404798 3 0.05
0x4047a0 3 0.05
0x4047a8 3 0.05
0x4047b0 3 0.05
0x4047b8 3 0.05
0x4047c0 3 0.05
0x4047c8 3 0.05
0x4047d0 3 0.05
0x4047d8 3 0.05
0x404980 2 0.03
0x404988 2 0.03
0x404990 2 0.03
0x404998 2 0.03
0x4049a0 2 0.03
0x4049a8 2 0.03
0x404e20 3 0.05
0x404e28 3 0.05
0x404e30 3 0.05
0x404e38 3 0.05
0x404e50 3 0.05
0x404e58 3 0.05
0x404e60 3 0.05
0x404e68 3 0.05
0x404e70 3 0.05
0x404e78 3 0.05
0x404e80 3 0.05
0x404e88 3 0.05
0x404e90 3 0.05
0x404e98 3 0.05
0x404ea0 3 0.05
0x405700 2 0.03
0x405708 2 0.03
0x405710 2 0.03
0x405718 2 0.03
0x405720 2 0.03
0x405728 2 0.03
0x405730 2 0.03
0x405738 2 0.03
0x405740 2 0.03
0x405748 2 0.03
0x405750 2 0.03
0x405758 1 0.02
0x405760 1 0.02
0x405768 1 0.02
0x405770 1 0.02
0x405778 1 0.02
0x405780 1 0.02
0x405788 1 0.02
0x405790 1 0.02
0x4057b8 1 0.02
0x4057c0 1 0.02
0x405800 1 0.02
0x405808 1 0.02
0x405810 2 0.03
0x405818 2 0.03
0x405820 2 0.03
0x405828 2 0.03
0x405830 2 0.03
0x405910 2 0.03
0x405918 2 0.03
0x405920 2 0.03
0x405928 2 0.03
0x405930 2 0.03
0x4059c0 3 0.05
0x4059c8 3 0.05
0x4059d0 3 0.05
0x4059e0 3 0.05
0x4059e8 3 0.05
0x4059f0 3 0.05
0x4059f8 3 0.05
0x405a00 3 0.05
0x405a08 3 0.05
0x405a30 1 0.02
0x405a38 1 0.02
0x405a40 1 0.02
0x405a48 1 0.02
0x405a50 1 0.02
sim_num_insn_by_pc.end_dist

ld_text_base             0x00400000 # program text (code) segment base
ld_text_size                  23440 # program text (code) size in bytes
ld_data_base             0x10000000 # program initialized data segment base
ld_data_size                   4096 # program init'ed `.data' and uninit'ed `.bss' size in bytes
ld_stack_base            0x7fffc000 # program stack segment base (highest address in stack)
ld_stack_size                 16384 # program initial stack size
ld_prog_entry            0x00400140 # program entry point (initial PC)
ld_environ_base          0x7fff8000 # program environment base address address
ld_target_big_endian              0 # target executable endian-ness, non-zero if big endian
mem.page_count                   12 # total number of pages allocated
mem.page_mem                    48k # total size of memory pages allocated
mem.ptab_misses                  12 # total first level page table misses
mem.ptab_accesses            179754 # total page table accesses
mem.ptab_miss_rate           0.0001 # first level page table miss rate

+--------------------------------------------------------------+
| effective code range:         [0, fffffff8]                  |
| effective bpred count:        0                              |
| effective sim cycles:         0                              |
| effective bpred misses:       0                              |
| effective icache misses:      0                              |
+--------------------------------------------------------------+

